Problem:    sq
Rows:       118
Columns:    99 (72 integer, 72 binary)
Non-zeros:  333
Status:     INTEGER OPTIMAL
Objective:  Custo = 1040 (MINimum)

   No.   Row name        Activity     Lower bound   Upper bound
------ ------------    ------------- ------------- -------------
     1 Custo                    1040                             
     2 c1[L1,L2]               -9975         -9975               
     3 c1[L1,L3]                 -43         -9975               
     4 c1[L1,L4]                -141         -9975               
     5 c1[L1,L5]                -165         -9975               
     6 c1[L1,L6]                -200         -9975               
     7 c1[L1,L7]                -116         -9975               
     8 c1[L1,L8]                 -73         -9975               
     9 c1[L1,L9]                -244         -9975               
    10 c1[L2,L1]                 -28         -9991               
    11 c1[L2,L3]                 -71         -9991               
    12 c1[L2,L4]                -169         -9991               
    13 c1[L2,L5]                -193         -9991               
    14 c1[L2,L6]                -228         -9991               
    15 c1[L2,L7]                -144         -9991               
    16 c1[L2,L8]                -101         -9991               
    17 c1[L2,L9]                -272         -9991               
    18 c1[L3,L1]               -9960         -9960               
    19 c1[L3,L2]               -9932         -9960               
    20 c1[L3,L4]                 -98         -9960               
    21 c1[L3,L5]                -122         -9960               
    22 c1[L3,L6]                -157         -9960               
    23 c1[L3,L7]                 -73         -9960               
    24 c1[L3,L8]                 -30         -9960               
    25 c1[L3,L9]                -201         -9960               
    26 c1[L4,L1]               -9859         -9975               
    27 c1[L4,L2]               -9834         -9975               
    28 c1[L4,L3]               -9905         -9975               
    29 c1[L4,L5]                 -24         -9975               
    30 c1[L4,L6]                 -59         -9975               
    31 c1[L4,L7]               -9975         -9975               
    32 c1[L4,L8]               -9935         -9975               
    33 c1[L4,L9]                -103         -9975               
    34 c1[L5,L1]               -9838         -9979               
    35 c1[L5,L2]               -9807         -9979               
    36 c1[L5,L3]               -9881         -9979               
    37 c1[L5,L4]               -9979         -9979               
    38 c1[L5,L6]                 -35         -9979               
    39 c1[L5,L7]               -9954         -9979               
    40 c1[L5,L8]               -9908         -9979               
    41 c1[L5,L9]                 -79         -9979               
    42 c1[L6,L1]               -9803         -9968               
    43 c1[L6,L2]               -9775         -9968               
    44 c1[L6,L3]               -9843         -9968               
    45 c1[L6,L4]               -9944         -9968               
    46 c1[L6,L5]               -9968         -9968               
    47 c1[L6,L7]               -9919         -9968               
    48 c1[L6,L8]               -9876         -9968               
    49 c1[L6,L9]                 -44         -9968               
    50 c1[L7,L1]               -9884         -9960               
    51 c1[L7,L2]               -9859         -9960               
    52 c1[L7,L3]               -9930         -9960               
    53 c1[L7,L4]                 -25         -9960               
    54 c1[L7,L5]                 -49         -9960               
    55 c1[L7,L6]                 -84         -9960               
    56 c1[L7,L8]               -9960         -9960               
    57 c1[L7,L9]                -128         -9960               
    58 c1[L8,L1]               -9930         -9973               
    59 c1[L8,L2]               -9899         -9973               
    60 c1[L8,L3]               -9973         -9973               
    61 c1[L8,L4]                 -68         -9973               
    62 c1[L8,L5]                 -92         -9973               
    63 c1[L8,L6]                -127         -9973               
    64 c1[L8,L7]                 -43         -9973               
    65 c1[L8,L9]                -171         -9973               
    66 c1[L9,L1]               -9759         -9956               
    67 c1[L9,L2]               -9731         -9956               
    68 c1[L9,L3]               -9799         -9956               
    69 c1[L9,L4]               -9900         -9956               
    70 c1[L9,L5]               -9924         -9956               
    71 c1[L9,L6]               -9956         -9956               
    72 c1[L9,L7]               -9875         -9956               
    73 c1[L9,L8]               -9832         -9956               
    74 c2[L1,L2]                   1             1             = 
    75 c2[L1,L3]                   1             1             = 
    76 c2[L1,L4]                   1             1             = 
    77 c2[L1,L5]                   1             1             = 
    78 c2[L1,L6]                   1             1             = 
    79 c2[L1,L7]                   1             1             = 
    80 c2[L1,L8]                   1             1             = 
    81 c2[L1,L9]                   1             1             = 
    82 c2[L2,L3]                   1             1             = 
    83 c2[L2,L4]                   1             1             = 
    84 c2[L2,L5]                   1             1             = 
    85 c2[L2,L6]                   1             1             = 
    86 c2[L2,L7]                   1             1             = 
    87 c2[L2,L8]                   1             1             = 
    88 c2[L2,L9]                   1             1             = 
    89 c2[L3,L4]                   1             1             = 
    90 c2[L3,L5]                   1             1             = 
    91 c2[L3,L6]                   1             1             = 
    92 c2[L3,L7]                   1             1             = 
    93 c2[L3,L8]                   1             1             = 
    94 c2[L3,L9]                   1             1             = 
    95 c2[L4,L5]                   1             1             = 
    96 c2[L4,L6]                   1             1             = 
    97 c2[L4,L7]                   1             1             = 
    98 c2[L4,L8]                   1             1             = 
    99 c2[L4,L9]                   1             1             = 
   100 c2[L5,L6]                   1             1             = 
   101 c2[L5,L7]                   1             1             = 
   102 c2[L5,L8]                   1             1             = 
   103 c2[L5,L9]                   1             1             = 
   104 c2[L6,L7]                   1             1             = 
   105 c2[L6,L8]                   1             1             = 
   106 c2[L6,L9]                   1             1             = 
   107 c2[L7,L8]                   1             1             = 
   108 c2[L7,L9]                   1             1             = 
   109 c2[L8,L9]                   1             1             = 
   110 c3[L1]                    275           275             = 
   111 c3[L2]                    291           291             = 
   112 c3[L3]                    260           260             = 
   113 c3[L4]                    125           125             = 
   114 c3[L5]                    129           129             = 
   115 c3[L6]                    118           118             = 
   116 c3[L7]                    160           160             = 
   117 c3[L8]                    173           173             = 
   118 c3[L9]                    156           156             = 

   No. Column name       Activity     Lower bound   Upper bound
------ ------------    ------------- ------------- -------------
     1 S[L1]                     266             0               
     2 S[L2]                     294             0               
     3 S[L3]                     223             0               
     4 S[L4]                     125             0               
     5 S[L5]                     101             0               
     6 S[L6]                      66             0               
     7 S[L7]                     150             0               
     8 S[L8]                     193             0               
     9 S[L9]                      22             0               
    10 T[L1]                       0             0               
    11 T[L2]                       3             0               
    12 T[L3]                       0             0               
    13 T[L4]                       0             0               
    14 T[L5]                       0             0               
    15 T[L6]                       0             0               
    16 T[L7]                       0             0               
    17 T[L8]                      20             0               
    18 T[L9]                       0             0               
    19 E[L1]                       9             0               
    20 E[L2]                       0             0               
    21 E[L3]                      37             0               
    22 E[L4]                       0             0               
    23 E[L5]                      28             0               
    24 E[L6]                      52             0               
    25 E[L7]                      10             0               
    26 E[L8]                       0             0               
    27 E[L9]                     134             0               
    28 x[L1,L2]     *              1             0             1 
    29 x[L1,L3]     *              0             0             1 
    30 x[L1,L4]     *              0             0             1 
    31 x[L1,L5]     *              0             0             1 
    32 x[L1,L6]     *              0             0             1 
    33 x[L1,L7]     *              0             0             1 
    34 x[L1,L8]     *              0             0             1 
    35 x[L1,L9]     *              0             0             1 
    36 x[L2,L1]     *              0             0             1 
    37 x[L2,L3]     *              0             0             1 
    38 x[L2,L4]     *              0             0             1 
    39 x[L2,L5]     *              0             0             1 
    40 x[L2,L6]     *              0             0             1 
    41 x[L2,L7]     *              0             0             1 
    42 x[L2,L8]     *              0             0             1 
    43 x[L2,L9]     *              0             0             1 
    44 x[L3,L1]     *              1             0             1 
    45 x[L3,L2]     *              1             0             1 
    46 x[L3,L4]     *              0             0             1 
    47 x[L3,L5]     *              0             0             1 
    48 x[L3,L6]     *              0             0             1 
    49 x[L3,L7]     *              0             0             1 
    50 x[L3,L8]     *              0             0             1 
    51 x[L3,L9]     *              0             0             1 
    52 x[L4,L1]     *              1             0             1 
    53 x[L4,L2]     *              1             0             1 
    54 x[L4,L3]     *              1             0             1 
    55 x[L4,L5]     *              0             0             1 
    56 x[L4,L6]     *              0             0             1 
    57 x[L4,L7]     *              1             0             1 
    58 x[L4,L8]     *              1             0             1 
    59 x[L4,L9]     *              0             0             1 
    60 x[L5,L1]     *              1             0             1 
    61 x[L5,L2]     *              1             0             1 
    62 x[L5,L3]     *              1             0             1 
    63 x[L5,L4]     *              1             0             1 
    64 x[L5,L6]     *              0             0             1 
    65 x[L5,L7]     *              1             0             1 
    66 x[L5,L8]     *              1             0             1 
    67 x[L5,L9]     *              0             0             1 
    68 x[L6,L1]     *              1             0             1 
    69 x[L6,L2]     *              1             0             1 
    70 x[L6,L3]     *              1             0             1 
    71 x[L6,L4]     *              1             0             1 
    72 x[L6,L5]     *              1             0             1 
    73 x[L6,L7]     *              1             0             1 
    74 x[L6,L8]     *              1             0             1 
    75 x[L6,L9]     *              0             0             1 
    76 x[L7,L1]     *              1             0             1 
    77 x[L7,L2]     *              1             0             1 
    78 x[L7,L3]     *              1             0             1 
    79 x[L7,L4]     *              0             0             1 
    80 x[L7,L5]     *              0             0             1 
    81 x[L7,L6]     *              0             0             1 
    82 x[L7,L8]     *              1             0             1 
    83 x[L7,L9]     *              0             0             1 
    84 x[L8,L1]     *              1             0             1 
    85 x[L8,L2]     *              1             0             1 
    86 x[L8,L3]     *              1             0             1 
    87 x[L8,L4]     *              0             0             1 
    88 x[L8,L5]     *              0             0             1 
    89 x[L8,L6]     *              0             0             1 
    90 x[L8,L7]     *              0             0             1 
    91 x[L8,L9]     *              0             0             1 
    92 x[L9,L1]     *              1             0             1 
    93 x[L9,L2]     *              1             0             1 
    94 x[L9,L3]     *              1             0             1 
    95 x[L9,L4]     *              1             0             1 
    96 x[L9,L5]     *              1             0             1 
    97 x[L9,L6]     *              1             0             1 
    98 x[L9,L7]     *              1             0             1 
    99 x[L9,L8]     *              1             0             1 

Integer feasibility conditions:

KKT.PE: max.abs.err = 0.00e+00 on row 0
        max.rel.err = 0.00e+00 on row 0
        High quality

KKT.PB: max.abs.err = 0.00e+00 on row 0
        max.rel.err = 0.00e+00 on row 0
        High quality

End of output
